; benchmark generated from python API
(set-info :status unknown)
(define-funs-rec ( ( T2_06 ((x!1 Int)) Int)
                   ( p2_06 ((x!1 Int)) Int)
                   ( T2_01 ((x!1 Int)) Int)
                   ( p2_01 ((x!1 Int)) Int))
                 ( ((_ p2_06 0) x!1)
                   (let ((a!1 (mod (- x!1 ((_ p2_06 0) (div x!1 2))) 2)))
                     (ite (= x!1 0) 0 a!1))
                   (mod ((_ p2_01 0) x!1) 2)
                   (ite (= x!1 0) 0 (+ ((_ p2_01 0) (div x!1 2)) x!1))))
(assert
 (forall ((n Int) )(let ((?x251 ((_ T2_06 0) n)))
(let ((?x297 ((_ T2_01 0) n)))
(let (($x300 (= ?x297 ?x251)))
(let (($x265 (>= n 0)))
(=> $x265 $x300))))))
)
(check-sat)
